StudentsNr = 10;
InstructorsNr = 44;
DaysNr = 1;
SlotsPerDay = 15;
AvailabilitySlotsLenght = 5;
RoomNr = 2;
ProgrammNr = 2;
DegreeNr = 3;
RolesNr = 3;
CoursesNr = 10;
InstructorsProgramm = [{1}, {1, 2}, {2}, {1}, {1, 2}, {2}, {1, 2}, {2}, {1}, {1}, {1}, {2}, {1}, {2}, {2}, {1}, {1}, {1}, {2}, {1, 2}, {1}, {1}, {1, 2}, {1}, {2}, {2}, {1}, {1, 2}, {2}, {2}, {1}, {2}, {1, 2}, {1}, {1}, {1}, {2}, {1, 2}, {1}, {1, 2}, {1}, {1, 2}, {2}, {1, 2}];
InstructorRolesPerProgramm = [|{1, 4, 5, 9, 10, 16, 17, 21, 22, 27, 31, 35, 39, 42}, {2, 7, 9, 10, 13, 27, 31, 39, 42}, {1, 2, 4, 5, 7, 10, 11, 13, 17, 22, 24, 39}|{3, 5, 8, 12, 14, 15, 19, 29, 30, 42, 43}, {2, 3, 6, 7, 8, 12, 19, 26, 32, 42}, {2, 3, 5, 7, 14, 25, 29, 37}|];
InstructorsAvailability = [|1, 1, 1, |0, 1, 1, |1, 1, 0, |1, 1, 1, |1, 1, 1, |1, 1, 1, |1, 1, 1, |0, 0, 1, |1, 0, 1, |1, 0, 1, |0, 1, 0, |0, 1, 1, |1, 1, 0, |0, 1, 0, |0, 0, 0, |1, 1, 1, |0, 1, 1, |0, 1, 1, |0, 1, 1, |0, 1, 1, |1, 1, 1, |0, 1, 1, |1, 1, 1, |0, 1, 1, |1, 1, 1, |0, 0, 0, |1, 1, 1, |1, 1, 1, |1, 1, 1, |1, 1, 1, |0, 0, 1, |0, 1, 0, |1, 1, 1, |0, 1, 1, |0, 1, 0, |1, 1, 0, |0, 0, 1, |0, 0, 1, |0, 0, 1, |0, 0, 0, |0, 1, 1, |1, 0, 0, |1, 1, 1, |0, 1, 1|];
StudentsProgramm = [1, 2, 1, 1, 2, 1, 1, 2, 1, 2];
StudentsDegree = [2, 1, 1, 2, 3, 3, 3, 3, 1, 2];
StudentsSupervisorId = [13, 42, 27, 24, 2, 21, 27, 7, 41, 8];
StudentsCourseIds = [{3, 5, 9}, {6, 7, 10}, {2, 7, 8}, {1, 3, 4}, {1, 4, 5, 6, 7, 10}, {1, 2, 3, 5, 8, 10}, {2, 3, 4, 5, 6, 9}, {2, 3, 4, 8, 9, 10}, {1, 3, 6}, {6, 7, 10}];
StudentsAvailability = [|1, 1, 1, |1, 1, 1, |1, 1, 1, |1, 1, 1, |0, 0, 1, |1, 1, 1, |1, 0, 1, |0, 1, 1, |1, 1, 1, |0, 0, 0|];
TheoryticalMinCard = [0, 0, 0, 0, 0, 0, 0, 0, 0, 0];
CoursesInstructorIds = [{1, 2, 4, 5, 6, 8, 11, 13, 17, 18, 22, 23, 24, 27, 29, 30, 31, 34, 35, 38, 40, 42, 44}, {2, 4, 6, 7, 8, 10, 12, 13, 15, 18, 19, 24, 25, 27, 28, 30, 31, 32, 34, 35, 37, 38, 39, 40, 41, 42, 43, 44}, {1, 3, 6, 11, 12, 14, 15, 16, 20, 22, 23, 24, 25, 26, 27, 28, 30, 31, 32, 33, 34, 35, 38, 40, 41, 43, 44}, {3, 6, 10, 12, 13, 15, 16, 23, 27, 29, 31, 32, 33, 34, 36, 39, 41, 42, 44}, {3, 8, 23, 27, 32, 44}, {2, 3, 4, 5, 6, 14, 18, 22, 28, 30, 32, 33, 35, 37, 39}, {11, 14, 15, 18, 21, 22, 24, 26, 27, 29, 31, 34, 36, 39}, {1, 5, 7, 8, 10, 15, 18, 19, 28, 30, 35, 38, 39}, {2, 5, 11, 13, 15, 17, 18, 20, 23, 24, 25, 26, 27, 28, 31, 36, 38, 39, 40, 42}, {8, 13, 15, 18, 19, 20, 23, 29, 37, 41, 42}];
RolesDemands = [8, 1, 7];
RolesContinuity = [];
ExamLen = [1, 2, 2, 1, 2, 2, 2, 2, 2, 1];
LunchTsMinLen = 0;
LunchStarts = [6..11];
SupervisorAvailable = 5;
OptimalLunchLenght = [1, 1];
OptimalStartTs = [2, 0];
OptimalFinishTs = [1, 15];
MinimizeRooms = 500;
RolesSoftContinuity = [|1, 2, 3|4, 4, 4|];
SameDegreeInRoom = 20;
Mergeability = 1;
